Problem:    final
Rows:       104
Columns:    142 (142 integer, 142 binary)
Non-zeros:  384
Status:     INTEGER OPTIMAL
Objective:  weightSum = 465 (MAXimum)

   No.   Row name        Activity     Lower bound   Upper bound
------ ------------    ------------- ------------- -------------
     1 weightSum                 465                             
     2 softR[0]                    0                          -0 
     3 softR[1]                    2                           2 
     4 softR[2]                    0                          -0 
     5 softR[3]                    2                           2 
     6 softR[4]                    0                          -0 
     7 softR[5]                    2                           2 
     8 softR[6]                    0                          -0 
     9 softR[7]                    2                           2 
    10 softR[10]                   0                          -0 
    11 softR[11]                   2                           2 
    12 softR[12]                   0                          -0 
    13 softR[13]                   2                           2 
    14 softR[14]                   0                          -0 
    15 softR[15]                   2                           2 
    16 softR[16]                   0                          -0 
    17 softR[17]                   2                           2 
    18 softR[18]                   0                          -0 
    19 softR[19]                   2                           2 
    20 softR[20]                   0                          -0 
    21 softR[21]                   2                           2 
    22 softR[22]                   0                          -0 
    23 softR[23]                   2                           2 
    24 softR[24]                   0                          -0 
    25 softR[25]                   2                           2 
    26 softR[26]                   0                          -0 
    27 softR[27]                   2                           2 
    28 softR[32]                   0                          -0 
    29 softR[33]                   2                           2 
    30 softR[34]                   0                          -0 
    31 softR[35]                   2                           2 
    32 softR[36]                   0                          -0 
    33 softR[37]                   2                           2 
    34 softR[38]                   0                          -0 
    35 softR[39]                   2                           2 
    36 softR[40]                   0                          -0 
    37 softR[41]                   2                           2 
    38 softR[42]                   0                          -0 
    39 softR[43]                   2                           2 
    40 softR[44]                   0                          -0 
    41 softR[45]                   2                           2 
    42 softR[46]                   0                          -0 
    43 softR[47]                   2                           2 
    44 softR[48]                   0                          -0 
    45 softR[49]                   2                           2 
    46 softR[50]                   0                          -0 
    47 softR[51]                   2                           2 
    48 softR[52]                   0                          -0 
    49 softR[53]                   2                           2 
    50 softR[54]                   0                          -0 
    51 softR[55]                   2                           2 
    52 softR[58]                   0                          -0 
    53 softR[59]                   2                           2 
    54 softR[60]                   0                          -0 
    55 softR[61]                   2                           2 
    56 softR[62]                   0                          -0 
    57 softR[63]                   2                           2 
    58 softR[64]                   0                          -0 
    59 softR[65]                   2                           2 
    60 softR[66]                   0                          -0 
    61 softR[67]                   2                           2 
    62 softR[68]                   0                          -0 
    63 softR[69]                   2                           2 
    64 softR[70]                   0                          -0 
    65 softR[71]                   2                           2 
    66 softR[72]                   0                          -0 
    67 softR[73]                   2                           2 
    68 softR[76]                   0                          -0 
    69 softR[77]                   2                           2 
    70 softR[78]                   0                          -0 
    71 softR[79]                   2                           2 
    72 softR[80]                   0                          -0 
    73 softR[81]                   2                           2 
    74 softR[82]                   0                          -0 
    75 softR[83]                   2                           2 
    76 softR[84]                   0                          -0 
    77 softR[85]                   2                           2 
    78 softR[86]                   0                          -0 
    79 softR[87]                   2                           2 
    80 softR[88]                   0                          -0 
    81 softR[89]                   2                           2 
    82 softR[90]                   0                          -0 
    83 softR[91]                   2                           2 
    84 softR[92]                   0                          -0 
    85 softR[93]                   2                           2 
    86 softR[96]                   0                          -0 
    87 softR[97]                   2                           2 
    88 softR[100]                  0                          -0 
    89 softR[101]                  2                           2 
    90 softR[102]                  0                          -0 
    91 hardR[8]                   -1                           1 
    92 hardR[9]                    1                           3 
    93 hardR[28]                  -1                           1 
    94 hardR[29]                   1                           3 
    95 hardR[30]                  -1                           1 
    96 hardR[31]                   1                           3 
    97 hardR[56]                  -1                           1 
    98 hardR[57]                   1                           3 
    99 hardR[74]                  -1                           1 
   100 hardR[75]                   1                           3 
   101 hardR[94]                  -1                           1 
   102 hardR[95]                   1                           3 
   103 hardR[98]                  -1                           1 
   104 hardR[99]                   1                           3 

   No. Column name       Activity     Lower bound   Upper bound
------ ------------    ------------- ------------- -------------
     1 x[1]         *              1             0             1 
     2 x[10]        *              0             0             1 
     3 x[11]        *              0             0             1 
     4 x[12]        *              0             0             1 
     5 x[13]        *              0             0             1 
     6 x[14]        *              0             0             1 
     7 x[15]        *              0             0             1 
     8 x[20]        *              0             0             1 
     9 x[21]        *              0             0             1 
    10 x[22]        *              0             0             1 
    11 x[23]        *              0             0             1 
    12 x[24]        *              0             0             1 
    13 x[25]        *              0             0             1 
    14 x[26]        *              0             0             1 
    15 x[27]        *              0             0             1 
    16 x[28]        *              0             0             1 
    17 x[29]        *              0             0             1 
    18 x[30]        *              0             0             1 
    19 x[31]        *              0             0             1 
    20 x[32]        *              0             0             1 
    21 x[33]        *              0             0             1 
    22 x[34]        *              0             0             1 
    23 x[35]        *              0             0             1 
    24 x[40]        *              0             0             1 
    25 x[41]        *              0             0             1 
    26 x[42]        *              0             0             1 
    27 x[43]        *              0             0             1 
    28 x[44]        *              0             0             1 
    29 x[45]        *              0             0             1 
    30 x[46]        *              0             0             1 
    31 x[47]        *              0             0             1 
    32 x[48]        *              0             0             1 
    33 x[49]        *              0             0             1 
    34 x[50]        *              0             0             1 
    35 x[51]        *              0             0             1 
    36 x[52]        *              0             0             1 
    37 x[53]        *              0             0             1 
    38 x[54]        *              0             0             1 
    39 x[55]        *              0             0             1 
    40 x[56]        *              0             0             1 
    41 x[57]        *              0             0             1 
    42 x[58]        *              0             0             1 
    43 x[59]        *              0             0             1 
    44 x[60]        *              0             0             1 
    45 x[61]        *              0             0             1 
    46 x[62]        *              0             0             1 
    47 x[63]        *              0             0             1 
    48 x[64]        *              0             0             1 
    49 x[65]        *              0             0             1 
    50 x[66]        *              0             0             1 
    51 x[67]        *              0             0             1 
    52 x[68]        *              0             0             1 
    53 x[69]        *              0             0             1 
    54 b[0]         *              1             0             1 
    55 b[1]         *              1             0             1 
    56 b[2]         *              1             0             1 
    57 b[3]         *              1             0             1 
    58 b[4]         *              1             0             1 
    59 b[5]         *              1             0             1 
    60 b[6]         *              1             0             1 
    61 b[7]         *              1             0             1 
    62 b[10]        *              1             0             1 
    63 b[11]        *              1             0             1 
    64 b[12]        *              1             0             1 
    65 b[13]        *              1             0             1 
    66 b[14]        *              1             0             1 
    67 b[15]        *              1             0             1 
    68 b[16]        *              1             0             1 
    69 b[17]        *              1             0             1 
    70 b[18]        *              1             0             1 
    71 b[19]        *              1             0             1 
    72 b[20]        *              1             0             1 
    73 b[21]        *              1             0             1 
    74 b[22]        *              1             0             1 
    75 b[23]        *              1             0             1 
    76 b[24]        *              1             0             1 
    77 b[25]        *              1             0             1 
    78 b[26]        *              1             0             1 
    79 b[27]        *              1             0             1 
    80 b[32]        *              1             0             1 
    81 b[33]        *              1             0             1 
    82 b[34]        *              1             0             1 
    83 b[35]        *              1             0             1 
    84 b[36]        *              1             0             1 
    85 b[37]        *              1             0             1 
    86 b[38]        *              1             0             1 
    87 b[39]        *              1             0             1 
    88 b[40]        *              1             0             1 
    89 b[41]        *              1             0             1 
    90 b[42]        *              1             0             1 
    91 b[43]        *              1             0             1 
    92 b[44]        *              1             0             1 
    93 b[45]        *              1             0             1 
    94 b[46]        *              1             0             1 
    95 b[47]        *              1             0             1 
    96 b[48]        *              1             0             1 
    97 b[49]        *              1             0             1 
    98 b[50]        *              1             0             1 
    99 b[51]        *              1             0             1 
   100 b[52]        *              1             0             1 
   101 b[53]        *              1             0             1 
   102 b[54]        *              1             0             1 
   103 b[55]        *              1             0             1 
   104 b[58]        *              1             0             1 
   105 b[59]        *              1             0             1 
   106 b[60]        *              1             0             1 
   107 b[61]        *              1             0             1 
   108 b[62]        *              1             0             1 
   109 b[63]        *              1             0             1 
   110 b[64]        *              1             0             1 
   111 b[65]        *              1             0             1 
   112 b[66]        *              1             0             1 
   113 b[67]        *              1             0             1 
   114 b[68]        *              1             0             1 
   115 b[69]        *              1             0             1 
   116 b[70]        *              1             0             1 
   117 b[71]        *              1             0             1 
   118 b[72]        *              1             0             1 
   119 b[73]        *              1             0             1 
   120 b[76]        *              1             0             1 
   121 b[77]        *              1             0             1 
   122 b[78]        *              1             0             1 
   123 b[79]        *              1             0             1 
   124 b[80]        *              1             0             1 
   125 b[81]        *              1             0             1 
   126 b[82]        *              1             0             1 
   127 b[83]        *              1             0             1 
   128 b[84]        *              1             0             1 
   129 b[85]        *              1             0             1 
   130 b[86]        *              1             0             1 
   131 b[87]        *              1             0             1 
   132 b[88]        *              1             0             1 
   133 b[89]        *              1             0             1 
   134 b[90]        *              1             0             1 
   135 b[91]        *              1             0             1 
   136 b[92]        *              1             0             1 
   137 b[93]        *              1             0             1 
   138 b[96]        *              1             0             1 
   139 b[97]        *              1             0             1 
   140 b[100]       *              1             0             1 
   141 b[101]       *              1             0             1 
   142 b[102]       *              1             0             1 

Integer feasibility conditions:

KKT.PE: max.abs.err = 0.00e+00 on row 0
        max.rel.err = 0.00e+00 on row 0
        High quality

KKT.PB: max.abs.err = 0.00e+00 on row 0
        max.rel.err = 0.00e+00 on row 0
        High quality

End of output
